%%% static parameters %%%
timespan = 1;
Fact = [4];
Distr1 = [15];
Distr2 = [30];
Clients_N = [1000];
Demand_W = [15];
Lt0 = [4];
Lt1 = [4];
SS_ = [0.85];
DS_D = [8];
K = [200];
MA = [500];
%%% dynamic parameters %%%
lost_ratio_sales_ret_th = 0.8781622404413231;
lost_ratio_sales_ret_w = 33;
lost_ratio_sales_dis_th = 0.9142204531133545;
lost_ratio_sales_dis_w = 47;
lost_ratio_sales_fac_th = 0.2359134444024633;
lost_ratio_sales_fac_w = 51;
stock_customer_MA_mean_relative_th = 0.02884934625240554;
stock_customer_MA_mean_relative_w = 92;
stock_distributor_MA_mean_relative_th = 0.5391078400910491;
stock_distributor_MA_mean_relative_w = 89;
stock_retailer_MA_mean_relative_th = 0.2071947699237;
stock_retailer_MA_mean_relative_w = 65;
stock_factory_MA_mean_relative_th = 0.7130575304862563;
stock_factory_MA_mean_relative_w = 55;
